50 1225
1 2 502
1 3 108
1 4 549
1 5 634
1 6 329
1 7 322
1 8 389
1 9 118
1 10 169
1 11 211
1 12 461
1 13 591
1 14 448
1 15 277
1 16 304
1 17 278
1 18 672
1 19 632
1 20 238
1 21 258
1 22 537
1 23 687
1 24 300
1 25 484
1 26 553
1 27 644
1 28 111
1 29 300
1 30 704
1 31 268
1 32 530
1 33 262
1 34 613
1 35 460
1 36 392
1 37 747
1 38 215
1 39 755
1 40 514
1 41 421
1 42 409
1 43 151
1 44 424
1 45 525
1 46 699
1 47 455
1 48 284
1 49 343
1 50 40
2 3 543
2 4 116
2 5 718
2 6 619
2 7 819
2 8 667
2 9 427
2 10 581
2 11 639
2 12 652
2 13 182
2 14 453
2 15 543
2 16 807
2 17 511
2 18 328
2 19 716
2 20 292
2 21 695
2 22 512
2 23 243
2 24 270
2 25 354
2 26 68
2 27 410
2 28 603
2 29 784
2 30 698
2 31 234
2 32 296
2 33 599
2 34 588
2 35 188
2 36 468
2 37 684
2 38 580
2 39 644
2 40 527
2 41 268
2 42 595
2 43 376
2 44 115
2 45 242
2 46 771
2 47 409
2 48 542
2 49 740
2 50 469
3 4 569
3 5 543
3 6 431
3 7 282
3 8 284
3 9 219
3 10 61
3 11 110
3 12 363
3 13 657
3 14 388
3 15 184
3 16 290
3 17 386
3 18 660
3 19 541
3 20 316
3 21 332
3 22 471
3 23 698
3 24 300
3 25 449
3 26 585
3 27 610
3 28 84
3 29 241
3 30 623
3 31 313
3 32 510
3 33 363
3 34 540
3 35 534
3 36 324
3 37 673
3 38 108
3 39 689
3 40 621
3 41 406
3 42 316
3 43 241
3 44 448
3 45 517
3 46 607
3 47 556
3 48 391
3 49 240
3 50 141
4 5 647
4 6 711
4 7 851
4 8 642
4 9 494
4 10 597
4 11 652
4 12 609
4 13 283
4 14 393
4 15 530
4 16 849
4 17 605
4 18 211
4 19 644
4 20 370
4 21 767
4 22 435
4 23 144
4 24 271
4 25 278
4 26 65
4 27 302
4 28 639
4 29 809
4 30 611
4 31 287
4 32 203
4 33 684
4 34 505
4 35 304
4 36 423
4 37 588
4 38 585
4 39 542
4 40 641
4 41 214
4 42 556
4 43 444
4 44 125
4 45 147
4 46 694
4 47 523
4 48 635
4 49 738
4 50 521
5 6 961
5 7 705
5 8 293
5 9 706
5 10 499
5 11 505
5 12 188
5 13 899
5 14 267
5 15 359
5 16 755
5 17 892
5 18 548
5 19 2
5 20 709
5 21 874
5 22 211
5 23 681
5 24 501
5 25 368
5 26 706
5 27 415
5 28 615
5 29 638
5 30 125
5 31 622
5 32 448
5 33 897
5 34 160
5 35 843
5 36 278
5 37 207
5 38 444
5 39 268
5 40 1081
5 41 450
5 42 227
5 43 692
5 44 608
5 45 502
5 46 64
5 47 982
5 48 906
5 49 453
5 50 650
6 7 499
6 8 716
6 9 265
6 10 489
6 11 515
6 12 790
6 13 608
6 14 752
6 15 606
6 16 438
6 17 107
6 18 891
6 19 959
6 20 345
6 21 189
6 22 843
6 23 855
6 24 546
6 25 756
6 26 686
6 27 903
6 28 388
6 29 521
6 30 1022
6 31 446
6 32 774
6 33 69
6 34 924
6 35 475
6 36 705
6 37 1057
6 38 540
6 39 1056
6 40 290
6 41 670
6 42 737
6 43 299
6 44 598
6 45 750
6 46 1026
6 47 313
6 48 76
6 49 641
6 50 311
7 8 412
7 9 427
7 10 268
7 11 226
7 12 519
7 13 913
7 14 633
7 15 399
7 16 70
7 17 515
7 18 938
7 19 704
7 20 559
7 21 316
7 22 703
7 23 981
7 24 583
7 25 716
7 26 865
7 27 875
7 28 215
7 29 66
7 30 812
7 31 585
7 32 785
7 33 435
7 34 755
7 35 781
7 36 565
7 37 879
7 38 305
7 39 911
7 40 767
7 41 685
7 42 500
7 43 470
7 44 729
7 45 797
7 46 760
7 47 739
7 48 502
7 49 255
7 50 360
8 9 487
8 10 228
8 11 218
8 12 107
8 13 825
8 14 288
8 15 135
8 16 462
8 17 666
8 18 640
8 19 292
8 20 541
8 21 601
8 22 327
8 23 732
8 24 399
8 25 406
8 26 684
8 27 538
8 28 340
8 29 345
8 30 402
8 31 487
8 32 494
8 33 647
8 34 358
8 35 730
8 36 230
8 37 472
8 38 175
8 39 512
8 40 889
8 41 429
8 42 108
8 43 492
8 44 552
8 45 530
8 46 351
8 47 809
8 48 673
8 49 164
8 50 416
9 10 281
9 11 327
9 12 545
9 13 490
9 14 487
9 15 363
9 16 398
9 17 186
9 18 648
9 19 703
9 20 139
9 21 272
9 22 578
9 23 638
9 24 286
9 25 493
9 26 486
9 27 645
9 28 227
9 29 413
9 30 759
9 31 208
9 32 520
9 33 213
9 34 659
9 35 355
9 36 441
9 37 792
9 38 319
9 39 790
9 40 403
9 41 412
9 42 488
9 43 51
9 44 371
9 45 503
9 46 770
9 47 337
9 48 202
9 49 459
9 50 79
10 11 57
10 12 315
10 13 705
10 14 372
10 15 147
10 16 290
10 17 447
10 18 669
10 19 498
10 20 371
10 21 376
10 22 449
10 23 720
10 24 325
10 25 448
10 26 619
10 27 608
10 28 115
10 29 216
10 30 587
10 31 357
10 32 517
10 33 420
10 34 512
10 35 587
10 36 305
10 37 643
10 38 55
10 39 665
10 40 683
10 41 418
10 42 273
10 43 300
10 44 481
10 45 531
10 46 562
10 47 617
10 48 451
10 49 180
10 50 202
11 12 317
11 13 762
11 14 406
11 15 173
11 16 259
11 17 483
11 18 718
11 19 503
11 20 425
11 21 384
11 22 478
11 23 773
11 24 381
11 25 492
11 26 676
11 27 649
11 28 128
11 29 167
11 30 601
11 31 415
11 32 565
11 33 446
11 34 535
11 35 643
11 36 339
11 37 662
11 38 79
11 39 689
11 40 725
11 41 469
11 42 285
11 43 351
11 44 537
11 45 581
11 46 566
11 47 665
11 48 485
11 49 132
11 50 248
12 13 822
12 14 224
12 15 184
12 16 568
12 17 730
12 18 574
12 19 186
12 20 574
12 21 691
12 22 238
12 23 681
12 24 397
12 25 348
12 26 658
12 27 460
12 28 430
12 29 452
12 30 294
12 31 503
12 32 438
12 33 723
12 34 256
12 35 742
12 36 185
12 37 365
12 38 259
12 39 407
12 40 937
12 41 394
12 42 61
12 43 540
12 44 537
12 45 481
12 46 248
12 47 848
12 48 741
12 49 272
12 50 481
13 14 632
13 15 694
13 16 888
13 17 507
13 18 487
13 19 896
13 20 353
13 21 729
13 22 694
13 23 368
13 24 427
13 25 537
13 26 218
13 27 586
13 28 701
13 29 889
13 30 881
13 31 348
13 32 478
13 33 609
13 34 771
13 35 139
13 36 641
13 37 866
13 38 715
13 39 824
13 40 434
13 41 448
13 42 762
13 43 443
13 44 290
13 45 422
13 46 952
13 47 328
13 48 538
13 49 877
13 50 552
14 15 234
14 16 662
14 17 669
14 18 353
14 19 265
14 20 460
14 21 706
14 22 90
14 23 457
14 24 240
14 25 123
14 26 448
14 27 252
14 28 472
14 29 572
14 30 280
14 31 364
14 32 214
14 33 695
14 34 173
14 35 576
14 36 67
14 37 305
14 38 328
14 39 307
14 40 831
14 41 185
14 42 183
14 43 461
14 44 341
14 45 259
14 46 325
14 47 726
14 48 688
14 49 431
14 50 450
15 16 432
15 17 546
15 18 561
15 19 357
15 20 406
15 21 516
15 22 305
15 23 634
15 24 272
15 25 329
15 26 566
15 27 481
15 28 260
15 29 338
15 30 440
15 31 353
15 32 409
15 33 540
15 34 365
15 35 596
15 36 166
15 37 495
15 38 96
15 39 518
15 40 760
15 41 326
15 42 132
15 43 362
15 44 430
15 45 435
15 46 423
15 47 676
15 48 557
15 49 212
15 50 297
16 17 464
16 18 950
16 19 754
16 20 535
16 21 252
16 22 737
16 23 983
16 24 586
16 25 736
16 26 857
16 27 897
16 28 210
16 29 126
16 30 858
16 31 573
16 32 800
16 33 378
16 34 795
16 35 753
16 36 595
16 37 921
16 38 335
16 39 949
16 40 714
16 41 696
16 42 542
16 43 445
16 44 725
16 45 806
16 46 813
16 47 694
16 48 448
16 49 313
16 50 339
17 18 787
17 19 890
17 20 241
17 21 240
17 22 759
17 23 748
17 24 451
17 25 662
17 26 578
17 27 804
17 28 362
17 29 523
17 30 944
17 31 345
17 32 675
17 33 105
17 34 842
17 35 372
17 36 626
17 37 974
17 38 493
17 39 968
17 40 253
17 41 573
17 42 674
17 43 207
17 44 493
17 45 648
17 46 957
17 47 237
17 48 31
17 49 615
17 50 250
18 19 546
18 20 545
18 21 916
18 22 348
18 23 147
18 24 372
18 25 235
18 26 271
18 27 136
18 28 741
18 29 885
18 30 478
18 31 445
18 32 153
18 33 854
18 34 389
18 35 516
18 36 410
18 37 432
18 38 641
18 39 373
18 40 849
18 41 254
18 42 536
18 43 602
18 44 295
18 45 147
18 46 580
18 47 731
18 48 815
18 49 772
18 50 654
19 20 707
19 21 872
19 22 209
19 23 679
19 24 499
19 25 366
19 26 704
19 27 413
19 28 613
19 29 637
19 30 125
19 31 619
19 32 446
19 33 895
19 34 158
19 35 841
19 36 275
19 37 207
19 38 442
19 39 267
19 40 1078
19 41 448
19 42 225
19 43 690
19 44 606
19 45 500
19 46 67
19 47 979
19 48 904
19 49 452
19 50 647
20 21 402
20 22 547
20 23 515
20 24 224
20 25 431
20 26 354
20 27 566
20 28 349
20 29 538
20 30 740
20 31 106
20 32 435
20 33 313
20 34 632
20 35 222
20 36 431
20 37 759
20 38 395
20 39 744
20 40 372
20 41 337
20 42 513
20 43 90
20 44 253
20 45 406
20 46 772
20 47 274
20 48 269
20 49 551
20 50 199
21 22 794
21 23 910
21 24 546
21 25 741
21 26 756
21 27 899
21 28 261
21 29 348
21 30 954
21 31 480
21 32 780
21 33 138
21 34 868
21 35 590
21 36 648
21 37 1002
21 38 431
21 39 1013
21 40 475
21 41 671
21 42 647
21 43 322
21 44 643
21 45 769
21 46 938
21 47 477
21 48 216
21 49 495
21 50 266
22 23 473
22 24 325
22 25 158
22 26 496
22 27 224
22 28 555
22 29 640
22 30 195
22 31 449
22 32 237
22 33 786
22 34 85
22 35 650
22 36 147
22 37 214
22 38 402
22 39 218
22 40 917
22 41 247
22 42 219
22 43 552
22 44 406
22 45 290
22 46 259
22 47 811
22 48 779
22 49 484
22 50 540
23 24 397
23 25 333
23 26 176
23 27 280
23 28 772
23 29 935
23 30 620
23 31 430
23 32 243
23 33 829
23 34 525
23 35 428
23 36 503
23 37 578
23 38 701
23 39 520
23 40 768
23 41 308
23 42 636
23 43 588
23 44 267
23 45 202
23 46 718
23 47 651
23 48 778
23 49 847
23 50 661
24 25 210
24 26 297
24 27 358
24 28 376
24 29 538
24 30 520
24 31 123
24 32 234
24 33 499
24 34 410
24 35 346
24 36 225
24 37 535
24 38 315
24 39 520
24 40 592
24 41 126
24 42 336
24 43 247
24 44 159
24 45 225
24 46 562
24 47 486
24 48 475
24 49 473
24 50 282
25 26 337
25 27 161
25 28 533
25 29 660
25 30 345
25 31 326
25 32 90
25 33 706
25 34 234
25 35 502
25 36 175
25 37 341
25 38 413
25 39 315
25 40 790
25 41 99
25 42 304
25 43 457
25 44 252
25 45 137
25 46 417
25 47 678
25 48 686
25 49 538
25 50 475
26 27 368
26 28 650
26 29 827
26 30 675
26 31 285
26 32 267
26 33 664
26 34 567
26 35 253
26 36 472
26 37 653
26 38 612
26 39 608
26 40 593
26 41 264
26 42 603
26 43 435
26 44 138
26 45 210
26 46 755
26 47 475
26 48 609
26 49 770
26 50 523
27 28 695
27 29 817
27 30 341
27 31 460
27 32 131
27 33 857
27 34 254
27 35 588
27 36 318
27 37 298
27 38 571
27 39 243
27 40 905
27 41 232
27 42 431
27 43 605
27 44 341
27 45 173
27 46 444
27 47 788
27 48 830
27 49 684
27 50 633
28 29 188
28 30 701
28 31 369
28 32 592
28 33 318
28 34 622
28 35 571
28 36 408
28 37 754
28 38 170
28 39 772
28 40 610
28 41 486
28 42 388
28 43 263
28 44 516
28 45 597
28 46 677
28 47 560
28 48 360
28 49 254
28 50 151
29 30 746
29 31 552
29 32 732
29 33 454
29 34 690
29 35 760
29 36 504
29 37 813
29 38 246
29 39 846
29 40 776
29 41 634
29 42 434
29 43 452
29 44 689
29 45 747
29 46 694
29 47 738
29 48 514
29 49 189
29 50 340
30 31 644
30 32 408
30 33 962
30 34 111
30 35 845
30 36 318
30 37 82
30 38 533
30 39 148
30 40 1111
30 41 440
30 42 316
30 43 738
30 44 598
30 45 464
30 46 115
30 47 1006
30 48 962
30 49 566
30 50 713
31 32 330
31 33 408
31 34 534
31 35 242
31 36 344
31 37 658
31 38 366
31 39 640
31 40 468
31 41 231
31 42 442
31 43 159
31 44 163
31 45 303
31 46 683
31 47 362
31 48 372
31 49 528
31 50 237
32 33 731
32 34 301
32 35 464
32 36 263
32 37 388
32 38 488
32 39 348
32 40 775
32 41 109
32 42 394
32 43 478
32 44 214
32 45 56
32 46 492
32 47 659
32 48 701
32 49 620
32 50 515
33 34 866
33 35 472
33 36 645
33 37 999
33 38 471
33 39 1000
33 40 338
33 41 625
33 42 672
33 43 253
33 44 566
33 45 711
33 46 962
33 47 340
33 48 78
33 49 571
33 50 248
34 35 733
34 36 221
34 37 134
34 38 461
34 39 155
34 40 1002
34 41 328
34 42 257
34 43 635
34 44 486
34 45 357
34 46 193
34 47 896
34 48 861
34 49 522
34 50 618
35 36 571
35 37 842
35 38 603
35 39 810
35 40 340
35 41 404
35 42 680
35 43 310
35 44 251
35 45 415
35 46 901
35 47 223
35 48 403
35 49 763
35 50 421
36 37 355
36 38 260
36 39 365
36 40 803
36 41 208
36 42 133
36 43 421
36 44 353
36 45 301
36 46 340
36 47 703
36 48 644
36 49 366
36 50 397
37 38 591
37 39 71
37 40 1126
37 41 440
37 42 379
37 43 766
37 44 591
37 45 443
37 46 195
37 47 1017
37 48 994
37 49 637
37 50 752
38 39 615
38 40 723
38 41 394
38 42 218
38 43 332
38 44 474
38 45 506
38 46 507
38 47 651
38 48 499
38 49 161
38 50 244
39 40 1106
39 41 414
39 42 412
39 43 760
39 44 558
39 45 401
39 46 263
39 47 994
39 48 989
39 49 676
39 50 757
40 41 692
40 42 878
40 43 397
40 44 564
40 45 733
40 46 1144
40 47 118
40 48 265
40 49 858
40 50 480
41 42 341
41 43 372
41 44 158
41 45 112
41 46 504
41 47 579
41 48 598
41 49 538
41 50 406
42 43 481
42 44 479
42 45 434
42 46 291
42 47 787
42 48 686
42 49 267
42 50 427
43 44 321
43 45 458
43 46 757
43 47 319
43 48 229
43 49 481
43 50 111
44 45 169
44 46 663
44 47 447
44 48 522
44 49 632
44 50 396
45 46 547
45 47 616
45 48 675
45 49 647
45 50 507
46 47 1044
46 48 971
46 49 506
46 50 715
47 48 261
47 49 796
47 50 417
48 49 615
48 50 259
49 50 380
